NAME : tsp20_14.151.tour
COMMENT : Length = 151
COMMENT : Found by LKH [Keld Helsgaun]
TYPE : TOUR
DIMENSION : 20
TOUR_SECTION
1
3
12
20
7
15
8
4
17
9
19
16
6
18
5
13
2
14
11
10
-1
EOF
